Route 1: 18 164 163 53 183 171 99 168 55 96 67 115 41 23 144 111 192 158 33 36 190 34 82 63 104 106 2 3 4 165 12 109 87 113 25 70 169 153 180 73 85 91 142 64 126 79 133 58 89 174 154 86 78 181 148 80
Route 2: 131 74 62 94 149 134 110 54 100 182 108 188 177 35 97 28 162 117 137 118 132 88 9 160 31 191 179 52 49 81 175 172 51 59 37 140 120 72 199 39 56 116 65 19 129 103 139 155 29 15 195 147 43 143 42 125 77 92 47
Route 3: 57 5 166 157 161 123 11 84 50 26 90 8 150 14 46 198 93 105 66 141 124 138 107 38 196 186 69 75 60 102 145 200 112 71 48 178 167 197 122 128 95 13 32 114 68 187 136 24 7 156 173 45 22 151 185
Route 4: 61 119 152 184 194 21 6 40 27 193 159 146 127 44 135 170 30 83 189 176 130 10 17 16 101 98 121 20 76 1
Vehicles: 4
Distance: 3315.84
